nNurses = 171;
nHours = 29;
minHours = 10;
maxHours = 14;
maxConsec = 7;
maxPresence = 7;
demand = [40, 37, 42, 46, 46, 46, 49, 50, 45, 43, 38, 36, 39, 34, 38, 36, 34, 34, 31, 31, 36, 31, 36, 39, 38, 38, 36, 34, 38];
